RAW/CMTQ/fspd-mid/CMT11Q.vrp_seed-4.out
939.3597928	60.082	134.938
