RAW/CMTQ/fspd-mid/CMT11Q.vrp_seed-4.sol
Route #1: 87 89 86 111 82 119
Route #2: 105 107 67 69 70 71 74 72 75 78 77 76 73 98 116 100 99 101 102
Route #3: 81 2 1 3 4 5 10 11 15 14 13 9 7 6 83 113 117 84 112 85 88
Route #4: 91 114 21 20 23 26 28 32 35 29 36 34 31 30 33 27 24 22 25 19 16 17 12 8 108 118 18 90 92
Route #5: 109 37 38 39 42 41 44 47 46 49 50 51 48 45 43 40 115 97 93
Route #6: 95 96 94 110 52 54 57 59 65 61 62 64 66 63 60 56 58 55 53 80 79 68 103 104 106 120
Cost 939.359793